c Decomposition from Toto database
c graph6 ~?@LwCx`csK@?COG`G`cO@?CG??b?@E?HE?Kb?FGo@x???CW?}GA??GA??C???@E@^gG???C_To?@ECNg`?_??G_???GG????@C@?A?CW?}iOGo@|C`Go@|C`c?g?C?@?I?@?@GC??@O?_O??D?H?_??I?X?_??I?[_O??D?NG_k????@?O?A????WC??????_K?@A?D?_K????@?O??????_C????????_K??A???A?O??????C????A???C@???O?e?A?????????_???????GC?????????O??????c??_?????@G@???????@O???A?????O????_????A????C?????O?C?????????????????????G????G?????K????C?????F??A?C?????????O????????_?@??_?????B??A????????F????????C???????????A???G???@?@_?????????@????????
s td 323 14 76
b 1 7 15 35 46 49 50 56
b 2 7 8 15 16 35 46 49 50
b 3 3 7 8 13 15 16 35 46 49
b 4 3 7 8 13 15 16 30 35 49
b 5 7 8 15 48 49 50
b 6 3 7 8 13 15 28 30 35
b 7 3 7 8 13 28 35 36
b 8 3 7 8 13 28 31 36
b 9 7 15 16 35 53
b 10 3 7 12 13 14 30
b 11 3 4 7 8 30
b 12 3 28 30 72
b 13 3 17 28 72
b 14 17 28 70 72
b 15 7 16 54
b 16 3 26 35 36
b 17 3 4 10 30
b 18 3 4 6 9
b 19 30
b 20 3 12 14 39 40
b 21 3 27 39 40
b 22 27 39 40 76
b 23 7 52
b 24 52 74 75
b 25 17 70 71 72 73
b 26 30 68 69
b 27 66 67 68 69
b 28 16 50 64 65
b 29 16 49 63
b 30 48 50 62
b 31 7 59
b 32 7 57 58
b 33 7 38 55
b 34 7 48 51 60 61
b 35 3 34
b 36 3 28 29
b 37 3 29 33
b 38 3 10 30 32 41 42 43 44 45
b 39 3 11 26 47
b 40 3 11 25
b 41 3 23
b 42 3 7 8 18 19 20 21 22 24 28 31 36 37 38
b 43 4 5 6
b 44 1 2 3
b 45 7
b 46 7
b 47 30
b 48 27
b 49 52
b 50 17
b 51 66
b 52 16
b 53 16
b 54 48
b 55 7
b 56 7
b 57 7
b 58 7
b 59 3
b 60 3
b 61 3
b 62 3
b 63 3
b 64 4
b 65 1
b 66 7 15 35 46 49 50 56
b 67 3 7 8 13 15 28 30 35
b 68 3 7 8 13 15 16 30 35 49
b 69 3 7 8 13 15 16 30 35 49
b 70 3 7 8 13 15 16 30 35 49
b 71 3 7 8 13 15 16 35 46 49
b 72 3 7 8 13 15 16 35 46 49
b 73 7 8 15 16 35 46 49 50
b 74 7 8 15 16 35 46 49 50
b 75 7 8 15 16 35 46 49 50
b 76 7 8 15 16 35 46 49 50
b 77 7 15 35 46 49 50 56
b 78 7 15 35 46 49 50 56
b 79 7 15 35 46 49 50 56
b 80 7 8 15 48 49 50
b 81 7 8 15 48 49 50
b 82 3 7 8 13 28 35 36
b 83 3 7 8 13 28 35 36
b 84 3 7 8 13 15 28 30 35
b 85 3 7 8 13 15 28 30 35
b 86 3 7 8 13 15 28 30 35
b 87 3 4 7 8 30
b 88 3 4 7 8 30
b 89 3 7 8 13 15 16 30 35 49
b 90 3 7 8 13 15 16 30 35 49
b 91 3 7 8 13 15 16 30 35 49
b 92 3 7 8 13 15 16 30 35 49
b 93 3 7 8 13 15 16 30 35 49
b 94 3 7 8 13 15 16 35 46 49
b 95 3 7 8 13 15 16 35 46 49
b 96 3 7 8 13 15 16 35 46 49
b 97 3 7 8 13 15 16 35 46 49
b 98 7 8 15 16 35 46 49 50
b 99 7 8 15 16 35 46 49 50
b 100 7 8 15 16 35 46 49 50
b 101 7 8 15 16 35 46 49 50
b 102 7 8 15 16 35 46 49 50
b 103 7 8 15 16 35 46 49 50
b 104 7 15
b 105 7 15 16
b 106 7 15 16 35
b 107 7 8 15 16 35 53
b 108 7 8 15 16 35 46 53
b 109 7 8 15 16 35 46 49 53
b 110 7 8 15 16 35 46 49
b 111 3 7 8 15 16 35 46 49 50
b 112 3 7 8 15 16 35 46 49
b 113 3 8 13 15 16 35 46 49
b 114 3 13 15 16 35 46 49
b 115 3 15 16 35 46 49
b 116 3 16 35 46 49
b 117 3 35 46 49
b 118 3 46 49
b 119 3 49
b 120 3
b 121 3 8 13 15 16 35 46 49
b 122 3 13 15 16 35 46 49
b 123 3 15 16 35 46 49
b 124 3 16 35 46 49
b 125 3 35 46 49
b 126 3 46 49
b 127 3 49
b 128 1 3 49
b 129 1 3
b 130 1 3
b 131 3 8 13 15 16 35 46 49
b 132 3 13 15 16 35 46 49
b 133 3 15 16 35 46 49
b 134 3 16 35 46 49
b 135 3 35 46 49
b 136 3 46 49
b 137 3 49
b 138 3
b 139 3 7 8 13 15 16 35 49
b 140 3 7 13 15 16 30 35 49
b 141 3 7 13 16 30 35 49
b 142 3 7 13 30 35 49
b 143 3 7 13 30 49
b 144 3 7 12 13 30 49
b 145 3 7 12 13 30
b 146 3 12 13 14 30
b 147 3 12 14 30
b 148 3 12 14 30 39
b 149 3 12 14 39
b 150 3 14 39 40
b 151 3 39 40
b 152 27 39 40
b 153 27 40 76
b 154 27 76
b 155 7 8 13 15 16 30 35 49
b 156 8 13 15 16 30 35 49
b 157 13 15 16 30 35 49
b 158 15 16 30 35 49
b 159 16 30 35 49
b 160 30 35 49
b 161 30 49
b 162 30 49 68
b 163 30 68
b 164 30 66 68 69
b 165 66 68 69
b 166 66 68 69
b 167 66 69
b 168 7 8 13 15 16 30 35 49
b 169 8 13 15 16 30 35 49
b 170 13 15 16 30 35 49
b 171 15 16 30 35 49
b 172 16 30 35 49
b 173 30 35 49
b 174 30 49
b 175 30
b 176 3 7 8 15 16 30 35 49
b 177 3 7 8 16 30 35 49
b 178 3 7 8 30 35 49
b 179 3 7 8 30 49
b 180 3 7 8 30
b 181 3 4 8 30
b 182 3 4 30
b 183 3 4 10 30 32
b 184 3 4 10 30 32 41
b 185 3 4 10 30 32 41 42
b 186 3 4 10 30 32 41 42 43
b 187 3 4 10 30 32 41 42 43 44
b 188 3 10 30 32 41 42 43 44
b 189 3 30 32 41 42 43 44 45
b 190 3 32 41 42 43 44 45
b 191 3 41 42 43 44 45
b 192 3 42 43 44 45
b 193 3 43 44 45
b 194 3 44 45
b 195 3 45
b 196 3 4 8 30
b 197 3 4 30
b 198 3 4 6 30
b 199 3 4 6
b 200 4 6 9
b 201 4 6
b 202 4 6
b 203 3 7 8 13 15 30 35 49
b 204 3 7 8 13 15 30 35
b 205 3 8 13 15 28 30 35
b 206 3 13 15 28 30 35
b 207 3 15 28 30 35
b 208 3 28 30 35
b 209 3 28 30
b 210 3 28 72
b 211 17 28 72
b 212 17 28 70 71 72
b 213 17 70 71 72
b 214 17 71 72 73
b 215 17 72 73
b 216 17 73
b 217 3 8 13 15 28 30 35
b 218 3 13 15 28 30 35
b 219 3 15 28 30 35
b 220 3 28 30 35
b 221 3 28 35
b 222 3 28
b 223 3 29
b 224 3 33
b 225 3 7 8 13 28 30 35
b 226 3 7 8 13 28 35
b 227 3 7 8 13 28 36
b 228 3 7 8 13 18 28 31 36
b 229 3 7 8 13 18 19 28 31 36
b 230 3 7 8 13 18 19 20 28 31 36
b 231 3 7 8 13 18 19 20 21 28 31 36
b 232 3 7 8 13 18 19 20 21 22 28 31 36
b 233 3 7 8 13 18 19 20 21 22 24 28 31 36
b 234 3 7 8 13 18 19 20 21 22 24 28 31 36 37
b 235 3 7 8 18 19 20 21 22 24 28 31 36 37
b 236 7 8 18 19 20 21 22 24 28 31 36 37 38
b 237 7 18 19 20 21 22 24 28 31 36 37 38
b 238 7 19 20 21 22 24 28 31 36 37 38
b 239 7 20 21 22 24 28 31 36 37 38
b 240 7 21 22 24 28 31 36 37 38
b 241 7 22 24 28 31 36 37 38
b 242 7 24 28 31 36 37 38
b 243 7 28 31 36 37 38
b 244 7 31 36 37 38
b 245 7 36 37 38
b 246 7 37 38
b 247 7 38
b 248 7 55
b 249 3 8 13 28 35 36
b 250 3 13 28 35 36
b 251 3 28 35 36
b 252 3 35 36
b 253 3 26 36
b 254 3 11 26 36
b 255 3 11 26
b 256 3 11 47
b 257 3 11
b 258 3 25
b 259 8 15 16 35 46 49 50
b 260 15 16 35 46 49 50
b 261 16 35 46 49 50
b 262 16 46 49 50
b 263 16 49 50
b 264 16 49 50 64
b 265 16 50 64
b 266 16 64 65
b 267 16 65
b 268 8 15 16 35 46 49 50
b 269 15 16 35 46 49 50
b 270 16 35 46 49 50
b 271 16 46 49 50
b 272 16 49 50
b 273 16 49
b 274 16 63
b 275 7 15 16 35 46 49 50
b 276 7 16 35 46 49 50
b 277 7 16 46 49 50
b 278 7 16 49 50
b 279 7 16 50
b 280 7 16
b 281 7 54
b 282 7 8 15 35 46 49 50
b 283 7 8 15 46 49 50
b 284 7 8 15 49 50
b 285 8 15 48 49 50
b 286 15 48 49 50
b 287 48 49 50
b 288 48 50
b 289 48 62
b 290 7 15 48 49 50
b 291 7 48 49 50
b 292 7 48 49 50 51
b 293 7 48 50 51
b 294 7 48 50 51 60
b 295 7 48 51 60
b 296 7 51 60 61
b 297 7 60 61
b 298 7 61
b 299 7 15 16 35 46 49 50
b 300 7 15 35 46 49 50
b 301 7 35 46 49 50 56
b 302 7 46 49 50 56
b 303 7 49 50 56
b 304 7 50 56
b 305 7 56
b 306 7
b 307 7 35 46 49 50 56
b 308 7 46 49 50 56
b 309 7 49 50 56
b 310 7 50 56
b 311 7 56
b 312 7 56 57
b 313 7 57
b 314 7 58
b 315 7 35 46 49 50 56
b 316 7 46 49 50 56
b 317 7 49 50 56
b 318 7 50 56
b 319 7 56
b 320 7
b 321 7 52 74
b 322 52 74
b 323 52 75
1 66
1 79
1 300
2 76
2 103
2 110
3 72
3 97
3 112
4 70
4 93
4 139
5 80
5 81
5 284
6 67
6 86
6 204
7 82
7 83
7 226
8 227
8 228
9 106
9 107
10 145
10 146
11 87
11 88
11 180
12 209
12 210
13 210
13 211
14 211
14 212
15 280
15 281
16 252
16 253
17 182
17 183
18 199
18 200
19 47
19 175
20 149
20 150
21 151
21 152
22 152
22 153
23 320
23 321
24 322
24 323
25 213
25 214
26 163
26 164
27 165
27 166
28 265
28 266
29 273
29 274
30 288
30 289
31 55
31 306
32 313
32 314
33 247
33 248
34 295
34 296
35 59
35 138
36 222
36 223
37 223
37 224
38 188
38 189
39 255
39 256
40 257
40 258
41 63
41 120
42 235
42 236
43 201
43 202
44 129
44 130
45 104
46 281
48 154
49 323
50 216
51 167
52 267
53 274
54 289
56 314
57 248
58 298
60 224
61 195
62 258
64 202
65 130
66 77
66 78
67 84
67 85
68 69
68 89
68 90
69 70
69 91
70 92
71 72
71 94
71 95
72 96
73 74
73 98
73 99
74 75
74 100
75 76
75 101
76 102
77 301
78 307
79 315
80 285
81 290
82 227
83 249
84 205
85 217
86 225
87 181
88 196
89 140
90 155
91 168
92 176
93 203
94 113
95 121
96 131
97 139
98 111
99 259
100 268
101 275
102 282
103 299
104 105
105 106
107 108
108 109
109 110
111 112
113 114
114 115
115 116
116 117
117 118
118 119
119 120
121 122
122 123
123 124
124 125
125 126
126 127
127 128
128 129
131 132
132 133
133 134
134 135
135 136
136 137
137 138
140 141
141 142
142 143
143 144
144 145
146 147
147 148
148 149
150 151
153 154
155 156
156 157
157 158
158 159
159 160
160 161
161 162
162 163
164 165
166 167
168 169
169 170
170 171
171 172
172 173
173 174
174 175
176 177
177 178
178 179
179 180
181 182
183 184
184 185
185 186
186 187
187 188
189 190
190 191
191 192
192 193
193 194
194 195
196 197
197 198
198 199
200 201
203 204
205 206
206 207
207 208
208 209
212 213
214 215
215 216
217 218
218 219
219 220
220 221
221 222
225 226
228 229
229 230
230 231
231 232
232 233
233 234
234 235
236 237
237 238
238 239
239 240
240 241
241 242
242 243
243 244
244 245
245 246
246 247
249 250
250 251
251 252
253 254
254 255
256 257
259 260
260 261
261 262
262 263
263 264
264 265
266 267
268 269
269 270
270 271
271 272
272 273
275 276
276 277
277 278
278 279
279 280
282 283
283 284
285 286
286 287
287 288
290 291
291 292
292 293
293 294
294 295
296 297
297 298
299 300
301 302
302 303
303 304
304 305
305 306
307 308
308 309
309 310
310 311
311 312
312 313
315 316
316 317
317 318
318 319
319 320
321 322
